\ENCODING=ISO-8859-1
\Problem name: ilog.cplex

Minimize
 obj1: 92220 x1 + 108232 x2 + 94844 x3 + 90720 x4 + 93816 x5 + 100713 x6
       + 93253 x7 + 96327 x8 + 100055 x9 + 92611 x10 + 91759 x11 + 102136 x12
       + 98613 x13 + 101560 x14 + 107472 x15 + 104090 x16 + 95031 x17
       + 94620 x18 + 103023 x19 + 91878 x20 + 108091 x21 + 105835 x22
       + 96931 x23 + 109798 x24 + 93256 x25 + 106329 x26 + 100710 x27
       + 91045 x28 + 95951 x29 + 105211 x30 + 92788 x31 + 99234 x32
       + 103208 x33 + 97037 x34 + 108860 x35 + 103793 x36 + 99538 x37
       + 104756 x38 + 98471 x39 + 94317 x40 + 100927 x41 + 95813 x42
       + 108422 x43 + 103068 x44 + 99400 x45 + 93477 x46 + 105025 x47
       + 94488 x48 + 99906 x49 + 105513 x50 + 107913 x51 + 91685 x52
       + 104947 x53 + 102004 x54 + 92710 x55 + 106865 x56 + 94350 x57
       + 98015 x58 + 95769 x59 + 101755 x60 + 109916 x61 + 100714 x62
       + 102995 x63 + 106106 x64 + 91614 x65 + 99225 x66 + 91503 x67
       + 108869 x68 + 94153 x69 + 93122 x70 + 96109 x71 + 100017 x72
       + 90996 x73 + 90864 x74 + 100857 x75 + 93706 x76 + 100915 x77
       + 101868 x78 + 100348 x79 + 95780 x80 + 96443 x81 + 105212 x82
       + 96257 x83 + 96251 x84 + 99565 x85 + 93447 x86 + 90705 x87 + 105729 x88
       + 101547 x89 + 96095 x90 + 90053 x91 + 93669 x92 + 101031 x93
       + 104184 x94 + 100190 x95 + 105876 x96 + 97327 x97 + 104494 x98
       + 97543 x99 + 98874 x100 + 109544 x101 + 104532 x102 + 103200 x103
       + 106733 x104 + 99872 x105 + 102337 x106 + 102689 x107 + 99554 x108
       + 98687 x109 + 101192 x110 + 104319 x111 + 96797 x112 + 104951 x113
       + 100033 x114 + 94882 x115 + 96118 x116 + 100471 x117 + 101100 x118
       + 98482 x119 + 92178 x120 + 103804 x121 + 103403 x122 + 91947 x123
       + 101376 x124 + 101710 x125 + 103935 x126 + 99560 x127 + 104287 x128
       + 99659 x129 + 102208 x130 + 100225 x131 + 101482 x132 + 98707 x133
       + 102736 x134 + 93734 x135 + 97754 x136 + 92489 x137 + 94835 x138
       + 97099 x139 + 104815 x140 + 105106 x141 + 99417 x142 + 96738 x143
       + 103191 x144 + 98393 x145 + 108411 x146 + 107813 x147 + 90273 x148
       + 105317 x149 + 104042 x150 + 92400 x151 + 100603 x152 + 104399 x153
       + 106097 x154 + 98545 x155 + 96251 x156 + 105023 x157 + 109473 x158
       + 108884 x159 + 96429 x160 + 101750 x161 + 103866 x162 + 90612 x163
       + 93194 x164 + 92489 x165 + 104714 x166 + 107720 x167 + 94673 x168
       + 107999 x169 + 90330 x170 + 108425 x171 + 102800 x172 + 106369 x173
       + 96303 x174 + 99794 x175 + 101098 x176 + 90189 x177 + 104003 x178
       + 91968 x179 + 91310 x180 + 92935 x181 + 102807 x182 + 106553 x183
       + 109426 x184 + 103629 x185 + 100185 x186 + 101599 x187 + 94027 x188
       + 96965 x189 + 108980 x190 + 109046 x191 + 92835 x192 + 109847 x193
       + 96999 x194 + 109592 x195 + 96976 x196 + 94727 x197 + 100480 x198
       + 104645 x199 + 106729 x200 + 97351 x201 + 109090 x202 + 95361 x203
       + 104680 x204 + 109091 x205 + 103758 x206 + 93236 x207 + 90021 x208
       + 91610 x209 + 93719 x210 + 102435 x211 + 91166 x212 + 109753 x213
       + 106384 x214 + 108487 x215 + 101119 x216 + 105005 x217 + 98302 x218
       + 101582 x219 + 95842 x220 + 104913 x221 + 106354 x222 + 91655 x223
       + 93028 x224 + 101415 x225 + 91777 x226 + 106079 x227 + 109718 x228
       + 98224 x229 + 95079 x230 + 107506 x231 + 103920 x232 + 97280 x233
       + 105489 x234 + 92029 x235 + 96334 x236 + 94791 x237 + 109917 x238
       + 91150 x239 + 104881 x240 + 108477 x241 + 103251 x242 + 104974 x243
       + 106929 x244 + 99383 x245 + 94350 x246 + 98586 x247 + 91940 x248
       + 103972 x249 + 95425 x250 + 202611 x251 + 195212 x252 + 195411 x253
       + 182725 x254 + 204315 x255 + 215862 x256 + 186817 x257 + 198610 x258
       + 201800 x259 + 206354 x260 + 211459 x261 + 193613 x262 + 200320 x263
       + 196442 x264 + 194135 x265 + 201005 x266 + 180392 x267 + 208922 x268
       + 218007 x269 + 195501 x270 + 218780 x271 + 213571 x272 + 216461 x273
       + 199394 x274 + 196719 x275 + 186358 x276 + 215903 x277 + 196831 x278
       + 197801 x279 + 194594 x280 + 182406 x281 + 203469 x282 + 182329 x283
       + 197784 x284 + 181371 x285 + 204728 x286 + 203136 x287 + 186769 x288
       + 189443 x289 + 185587 x290 + 219756 x291 + 180405 x292 + 181679 x293
       + 208338 x294 + 193513 x295 + 219310 x296 + 214530 x297 + 211943 x298
       + 205511 x299 + 222068 x300
Subject To
 c1:   x11 - x13 - x19 - x22 - x24 - x25 + x28 - x29 - x31 + x48  = 0
 c2:   x61 - x63 - x69 - x72 - x74 - x75 + x78 - x79 - x81 + x98  = -1
 c3:   x111 - x113 - x119 - x122 - x124 - x125 + x128 - x129 - x131 + x148  = 1
 c4:   x161 - x163 - x169 - x172 - x174 - x175 + x178 - x179 - x181 + x198  = 0
 c5:   x211 - x213 - x219 - x222 - x224 - x225 + x228 - x229 - x231 + x248  = 0
 c6:   - x5 - x8 + x10 - x14 + x16 + x17 + x18 + x23 + x26 - x33 - x35 - x45
        = 0
 c7:   - x55 - x58 + x60 - x64 + x66 + x67 + x68 + x73 + x76 - x83 - x85 - x95
        = 0
 c8:   - x105 - x108 + x110 - x114 + x116 + x117 + x118 + x123 + x126 - x133
       - x135 - x145  = 0
 c9:   - x155 - x158 + x160 - x164 + x166 + x167 + x168 + x173 + x176 - x183
       - x185 - x195  = 0
 c10:  - x205 - x208 + x210 - x214 + x216 + x217 + x218 + x223 + x226 - x233
       - x235 - x245  = 0
 c11:  x1 - x4 - x11 + x15 - x16 + x30 - x32 + x34 - x42  = 0
 c12:  x51 - x54 - x61 + x65 - x66 + x80 - x82 + x84 - x92  = 1
 c13:  x101 - x104 - x111 + x115 - x116 + x130 - x132 + x134 - x142  = 0
 c14:  x151 - x154 - x161 + x165 - x166 + x180 - x182 + x184 - x192  = -1
 c15:  x201 - x204 - x211 + x215 - x216 + x230 - x232 + x234 - x242  = 0
 c16:  - x3 + x8 - x12 + x20 + x22 - x49  = 0
 c17:  - x53 + x58 - x62 + x70 + x72 - x99  = 0
 c18:  - x103 + x108 - x112 + x120 + x122 - x149  = 0
 c19:  - x153 + x158 - x162 + x170 + x172 - x199  = 0
 c20:  - x203 + x208 - x212 + x220 + x222 - x249  = 0
 c21:  x4 + x9 + x21 + x24 - x26 - x28 + x35 + x41  = 0
 c22:  x54 + x59 + x71 + x74 - x76 - x78 + x85 + x91  = 0
 c23:  x104 + x109 + x121 + x124 - x126 - x128 + x135 + x141  = -1
 c24:  x154 + x159 + x171 + x174 - x176 - x178 + x185 + x191  = 0
 c25:  x204 + x209 + x221 + x224 - x226 - x228 + x235 + x241  = 0
 c26:  - x2 - x17 + x19 - x21 - x37 - x38 + x39 + x40 + x45 - x48 + x49  = 1
 c27:  - x52 - x67 + x69 - x71 - x87 - x88 + x89 + x90 + x95 - x98 + x99  = 0
 c28:  - x102 - x117 + x119 - x121 - x137 - x138 + x139 + x140 + x145 - x148
       + x149  = 0
 c29:  - x152 - x167 + x169 - x171 - x187 - x188 + x189 + x190 + x195 - x198
       + x199  = 0
 c30:  - x202 - x217 + x219 - x221 - x237 - x238 + x239 + x240 + x245 - x248
       + x249  = 1
 c31:  x3 + x5 - x18 + x29 + x32 - x34 + x36 - x44 + x46 + x47 - x50  = 0
 c32:  x53 + x55 - x68 + x79 + x82 - x84 + x86 - x94 + x96 + x97 - x100  = 0
 c33:  x103 + x105 - x118 + x129 + x132 - x134 + x136 - x144 + x146 + x147
       - x150  = 0
 c34:  x153 + x155 - x168 + x179 + x182 - x184 + x186 - x194 + x196 + x197
       - x200  = 1
 c35:  x203 + x205 - x218 + x229 + x232 - x234 + x236 - x244 + x246 + x247
       - x250  = 0
 c36:  x2 + x7 - x10 + x12 + x13 - x27 - x30 + x33 - x36 - x40 - x41 + x43
       + x50  = 0
 c37:  x52 + x57 - x60 + x62 + x63 - x77 - x80 + x83 - x86 - x90 - x91 + x93
       + x100  = 0
 c38:  x102 + x107 - x110 + x112 + x113 - x127 - x130 + x133 - x136 - x140
       - x141 + x143 + x150  = 0
 c39:  x152 + x157 - x160 + x162 + x163 - x177 - x180 + x183 - x186 - x190
       - x191 + x193 + x200  = 0
 c40:  x202 + x207 - x210 + x212 + x213 - x227 - x230 + x233 - x236 - x240
       - x241 + x243 + x250  = -1
 c41:  - x6 - x7 + x14 - x15 - x20 + x27 + x31 + x38 - x39 + x42 - x47  = 0
 c42:  - x56 - x57 + x64 - x65 - x70 + x77 + x81 + x88 - x89 + x92 - x97  = 0
 c43:  - x106 - x107 + x114 - x115 - x120 + x127 + x131 + x138 - x139 + x142
       - x147  = 0
 c44:  - x156 - x157 + x164 - x165 - x170 + x177 + x181 + x188 - x189 + x192
       - x197  = 0
 c45:  - x206 - x207 + x214 - x215 - x220 + x227 + x231 + x238 - x239 + x242
       - x247  = 0
 c46:  - x1 + x6 - x9 - x23 + x25 + x37 - x43 + x44 - x46  = -1
 c47:  - x51 + x56 - x59 - x73 + x75 + x87 - x93 + x94 - x96  = 0
 c48:  - x101 + x106 - x109 - x123 + x125 + x137 - x143 + x144 - x146  = 0
 c49:  - x151 + x156 - x159 - x173 + x175 + x187 - x193 + x194 - x196  = 0
 c50:  - x201 + x206 - x209 - x223 + x225 + x237 - x243 + x244 - x246  = 0
 c51:  4 x1 + 4 x51 + 4 x101 + 4 x151 + 4 x201 - 2 x251 <= 0
 c52:  4 x2 + 4 x52 + 4 x102 + 4 x152 + 4 x202 - 2 x252 <= 0
 c53:  4 x3 + 4 x53 + 4 x103 + 4 x153 + 4 x203 - 2 x253 <= 0
 c54:  4 x4 + 4 x54 + 4 x104 + 4 x154 + 4 x204 - 2 x254 <= 0
 c55:  4 x5 + 4 x55 + 4 x105 + 4 x155 + 4 x205 - 2 x255 <= 0
 c56:  4 x6 + 4 x56 + 4 x106 + 4 x156 + 4 x206 - 2 x256 <= 0
 c57:  4 x7 + 4 x57 + 4 x107 + 4 x157 + 4 x207 - 2 x257 <= 0
 c58:  4 x8 + 4 x58 + 4 x108 + 4 x158 + 4 x208 - 2 x258 <= 0
 c59:  4 x9 + 4 x59 + 4 x109 + 4 x159 + 4 x209 - 2 x259 <= 0
 c60:  4 x10 + 4 x60 + 4 x110 + 4 x160 + 4 x210 - 2 x260 <= 0
 c61:  4 x11 + 4 x61 + 4 x111 + 4 x161 + 4 x211 - 2 x261 <= 0
 c62:  4 x12 + 4 x62 + 4 x112 + 4 x162 + 4 x212 - 2 x262 <= 0
 c63:  4 x13 + 4 x63 + 4 x113 + 4 x163 + 4 x213 - 2 x263 <= 0
 c64:  4 x14 + 4 x64 + 4 x114 + 4 x164 + 4 x214 - 2 x264 <= 0
 c65:  4 x15 + 4 x65 + 4 x115 + 4 x165 + 4 x215 - 2 x265 <= 0
 c66:  4 x16 + 4 x66 + 4 x116 + 4 x166 + 4 x216 - 2 x266 <= 0
 c67:  4 x17 + 4 x67 + 4 x117 + 4 x167 + 4 x217 - 2 x267 <= 0
 c68:  4 x18 + 4 x68 + 4 x118 + 4 x168 + 4 x218 - 2 x268 <= 0
 c69:  4 x19 + 4 x69 + 4 x119 + 4 x169 + 4 x219 - 2 x269 <= 0
 c70:  4 x20 + 4 x70 + 4 x120 + 4 x170 + 4 x220 - 2 x270 <= 0
 c71:  4 x21 + 4 x71 + 4 x121 + 4 x171 + 4 x221 - 2 x271 <= 0
 c72:  4 x22 + 4 x72 + 4 x122 + 4 x172 + 4 x222 - 2 x272 <= 0
 c73:  4 x23 + 4 x73 + 4 x123 + 4 x173 + 4 x223 - 2 x273 <= 0
 c74:  4 x24 + 4 x74 + 4 x124 + 4 x174 + 4 x224 - 2 x274 <= 0
 c75:  4 x25 + 4 x75 + 4 x125 + 4 x175 + 4 x225 - 2 x275 <= 0
 c76:  4 x26 + 4 x76 + 4 x126 + 4 x176 + 4 x226 - 2 x276 <= 0
 c77:  4 x27 + 4 x77 + 4 x127 + 4 x177 + 4 x227 - 2 x277 <= 0
 c78:  4 x28 + 4 x78 + 4 x128 + 4 x178 + 4 x228 - 2 x278 <= 0
 c79:  4 x29 + 4 x79 + 4 x129 + 4 x179 + 4 x229 - 2 x279 <= 0
 c80:  4 x30 + 4 x80 + 4 x130 + 4 x180 + 4 x230 - 2 x280 <= 0
 c81:  4 x31 + 4 x81 + 4 x131 + 4 x181 + 4 x231 - 2 x281 <= 0
 c82:  4 x32 + 4 x82 + 4 x132 + 4 x182 + 4 x232 - 2 x282 <= 0
 c83:  4 x33 + 4 x83 + 4 x133 + 4 x183 + 4 x233 - 2 x283 <= 0
 c84:  4 x34 + 4 x84 + 4 x134 + 4 x184 + 4 x234 - 2 x284 <= 0
 c85:  4 x35 + 4 x85 + 4 x135 + 4 x185 + 4 x235 - 2 x285 <= 0
 c86:  4 x36 + 4 x86 + 4 x136 + 4 x186 + 4 x236 - 2 x286 <= 0
 c87:  4 x37 + 4 x87 + 4 x137 + 4 x187 + 4 x237 - 2 x287 <= 0
 c88:  4 x38 + 4 x88 + 4 x138 + 4 x188 + 4 x238 - 2 x288 <= 0
 c89:  4 x39 + 4 x89 + 4 x139 + 4 x189 + 4 x239 - 2 x289 <= 0
 c90:  4 x40 + 4 x90 + 4 x140 + 4 x190 + 4 x240 - 2 x290 <= 0
 c91:  4 x41 + 4 x91 + 4 x141 + 4 x191 + 4 x241 - 2 x291 <= 0
 c92:  4 x42 + 4 x92 + 4 x142 + 4 x192 + 4 x242 - 2 x292 <= 0
 c93:  4 x43 + 4 x93 + 4 x143 + 4 x193 + 4 x243 - 2 x293 <= 0
 c94:  4 x44 + 4 x94 + 4 x144 + 4 x194 + 4 x244 - 2 x294 <= 0
 c95:  4 x45 + 4 x95 + 4 x145 + 4 x195 + 4 x245 - 2 x295 <= 0
 c96:  4 x46 + 4 x96 + 4 x146 + 4 x196 + 4 x246 - 2 x296 <= 0
 c97:  4 x47 + 4 x97 + 4 x147 + 4 x197 + 4 x247 - 2 x297 <= 0
 c98:  4 x48 + 4 x98 + 4 x148 + 4 x198 + 4 x248 - 2 x298 <= 0
 c99:  4 x49 + 4 x99 + 4 x149 + 4 x199 + 4 x249 - 2 x299 <= 0
 c100: 4 x50 + 4 x100 + 4 x150 + 4 x200 + 4 x250 - 2 x300 <= 0
Bounds
 0 <= x1 <= 1
 0 <= x2 <= 1
 0 <= x3 <= 1
 0 <= x4 <= 1
 0 <= x5 <= 1
 0 <= x6 <= 1
 0 <= x7 <= 1
 0 <= x8 <= 1
 0 <= x9 <= 1
 0 <= x10 <= 1
 0 <= x11 <= 1
 0 <= x12 <= 1
 0 <= x13 <= 1
 0 <= x14 <= 1
 0 <= x15 <= 1
 0 <= x16 <= 1
 0 <= x17 <= 1
 0 <= x18 <= 1
 0 <= x19 <= 1
 0 <= x20 <= 1
 0 <= x21 <= 1
 0 <= x22 <= 1
 0 <= x23 <= 1
 0 <= x24 <= 1
 0 <= x25 <= 1
 0 <= x26 <= 1
 0 <= x27 <= 1
 0 <= x28 <= 1
 0 <= x29 <= 1
 0 <= x30 <= 1
 0 <= x31 <= 1
 0 <= x32 <= 1
 0 <= x33 <= 1
 0 <= x34 <= 1
 0 <= x35 <= 1
 0 <= x36 <= 1
 0 <= x37 <= 1
 0 <= x38 <= 1
 0 <= x39 <= 1
 0 <= x40 <= 1
 0 <= x41 <= 1
 0 <= x42 <= 1
 0 <= x43 <= 1
 0 <= x44 <= 1
 0 <= x45 <= 1
 0 <= x46 <= 1
 0 <= x47 <= 1
 0 <= x48 <= 1
 0 <= x49 <= 1
 0 <= x50 <= 1
 0 <= x51 <= 1
 0 <= x52 <= 1
 0 <= x53 <= 1
 0 <= x54 <= 1
 0 <= x55 <= 1
 0 <= x56 <= 1
 0 <= x57 <= 1
 0 <= x58 <= 1
 0 <= x59 <= 1
 0 <= x60 <= 1
 0 <= x61 <= 1
 0 <= x62 <= 1
 0 <= x63 <= 1
 0 <= x64 <= 1
 0 <= x65 <= 1
 0 <= x66 <= 1
 0 <= x67 <= 1
 0 <= x68 <= 1
 0 <= x69 <= 1
 0 <= x70 <= 1
 0 <= x71 <= 1
 0 <= x72 <= 1
 0 <= x73 <= 1
 0 <= x74 <= 1
 0 <= x75 <= 1
 0 <= x76 <= 1
 0 <= x77 <= 1
 0 <= x78 <= 1
 0 <= x79 <= 1
 0 <= x80 <= 1
 0 <= x81 <= 1
 0 <= x82 <= 1
 0 <= x83 <= 1
 0 <= x84 <= 1
 0 <= x85 <= 1
 0 <= x86 <= 1
 0 <= x87 <= 1
 0 <= x88 <= 1
 0 <= x89 <= 1
 0 <= x90 <= 1
 0 <= x91 <= 1
 0 <= x92 <= 1
 0 <= x93 <= 1
 0 <= x94 <= 1
 0 <= x95 <= 1
 0 <= x96 <= 1
 0 <= x97 <= 1
 0 <= x98 <= 1
 0 <= x99 <= 1
 0 <= x100 <= 1
 0 <= x101 <= 1
 0 <= x102 <= 1
 0 <= x103 <= 1
 0 <= x104 <= 1
 0 <= x105 <= 1
 0 <= x106 <= 1
 0 <= x107 <= 1
 0 <= x108 <= 1
 0 <= x109 <= 1
 0 <= x110 <= 1
 0 <= x111 <= 1
 0 <= x112 <= 1
 0 <= x113 <= 1
 0 <= x114 <= 1
 0 <= x115 <= 1
 0 <= x116 <= 1
 0 <= x117 <= 1
 0 <= x118 <= 1
 0 <= x119 <= 1
 0 <= x120 <= 1
 0 <= x121 <= 1
 0 <= x122 <= 1
 0 <= x123 <= 1
 0 <= x124 <= 1
 0 <= x125 <= 1
 0 <= x126 <= 1
 0 <= x127 <= 1
 0 <= x128 <= 1
 0 <= x129 <= 1
 0 <= x130 <= 1
 0 <= x131 <= 1
 0 <= x132 <= 1
 0 <= x133 <= 1
 0 <= x134 <= 1
 0 <= x135 <= 1
 0 <= x136 <= 1
 0 <= x137 <= 1
 0 <= x138 <= 1
 0 <= x139 <= 1
 0 <= x140 <= 1
 0 <= x141 <= 1
 0 <= x142 <= 1
 0 <= x143 <= 1
 0 <= x144 <= 1
 0 <= x145 <= 1
 0 <= x146 <= 1
 0 <= x147 <= 1
 0 <= x148 <= 1
 0 <= x149 <= 1
 0 <= x150 <= 1
 0 <= x151 <= 1
 0 <= x152 <= 1
 0 <= x153 <= 1
 0 <= x154 <= 1
 0 <= x155 <= 1
 0 <= x156 <= 1
 0 <= x157 <= 1
 0 <= x158 <= 1
 0 <= x159 <= 1
 0 <= x160 <= 1
 0 <= x161 <= 1
 0 <= x162 <= 1
 0 <= x163 <= 1
 0 <= x164 <= 1
 0 <= x165 <= 1
 0 <= x166 <= 1
 0 <= x167 <= 1
 0 <= x168 <= 1
 0 <= x169 <= 1
 0 <= x170 <= 1
 0 <= x171 <= 1
 0 <= x172 <= 1
 0 <= x173 <= 1
 0 <= x174 <= 1
 0 <= x175 <= 1
 0 <= x176 <= 1
 0 <= x177 <= 1
 0 <= x178 <= 1
 0 <= x179 <= 1
 0 <= x180 <= 1
 0 <= x181 <= 1
 0 <= x182 <= 1
 0 <= x183 <= 1
 0 <= x184 <= 1
 0 <= x185 <= 1
 0 <= x186 <= 1
 0 <= x187 <= 1
 0 <= x188 <= 1
 0 <= x189 <= 1
 0 <= x190 <= 1
 0 <= x191 <= 1
 0 <= x192 <= 1
 0 <= x193 <= 1
 0 <= x194 <= 1
 0 <= x195 <= 1
 0 <= x196 <= 1
 0 <= x197 <= 1
 0 <= x198 <= 1
 0 <= x199 <= 1
 0 <= x200 <= 1
 0 <= x201 <= 1
 0 <= x202 <= 1
 0 <= x203 <= 1
 0 <= x204 <= 1
 0 <= x205 <= 1
 0 <= x206 <= 1
 0 <= x207 <= 1
 0 <= x208 <= 1
 0 <= x209 <= 1
 0 <= x210 <= 1
 0 <= x211 <= 1
 0 <= x212 <= 1
 0 <= x213 <= 1
 0 <= x214 <= 1
 0 <= x215 <= 1
 0 <= x216 <= 1
 0 <= x217 <= 1
 0 <= x218 <= 1
 0 <= x219 <= 1
 0 <= x220 <= 1
 0 <= x221 <= 1
 0 <= x222 <= 1
 0 <= x223 <= 1
 0 <= x224 <= 1
 0 <= x225 <= 1
 0 <= x226 <= 1
 0 <= x227 <= 1
 0 <= x228 <= 1
 0 <= x229 <= 1
 0 <= x230 <= 1
 0 <= x231 <= 1
 0 <= x232 <= 1
 0 <= x233 <= 1
 0 <= x234 <= 1
 0 <= x235 <= 1
 0 <= x236 <= 1
 0 <= x237 <= 1
 0 <= x238 <= 1
 0 <= x239 <= 1
 0 <= x240 <= 1
 0 <= x241 <= 1
 0 <= x242 <= 1
 0 <= x243 <= 1
 0 <= x244 <= 1
 0 <= x245 <= 1
 0 <= x246 <= 1
 0 <= x247 <= 1
 0 <= x248 <= 1
 0 <= x249 <= 1
 0 <= x250 <= 1
 0 <= x251 <= 1
 0 <= x252 <= 1
 0 <= x253 <= 1
 0 <= x254 <= 1
 0 <= x255 <= 1
 0 <= x256 <= 1
 0 <= x257 <= 1
 0 <= x258 <= 1
 0 <= x259 <= 1
 0 <= x260 <= 1
 0 <= x261 <= 1
 0 <= x262 <= 1
 0 <= x263 <= 1
 0 <= x264 <= 1
 0 <= x265 <= 1
 0 <= x266 <= 1
 0 <= x267 <= 1
 0 <= x268 <= 1
 0 <= x269 <= 1
 0 <= x270 <= 1
 0 <= x271 <= 1
 0 <= x272 <= 1
 0 <= x273 <= 1
 0 <= x274 <= 1
 0 <= x275 <= 1
 0 <= x276 <= 1
 0 <= x277 <= 1
 0 <= x278 <= 1
 0 <= x279 <= 1
 0 <= x280 <= 1
 0 <= x281 <= 1
 0 <= x282 <= 1
 0 <= x283 <= 1
 0 <= x284 <= 1
 0 <= x285 <= 1
 0 <= x286 <= 1
 0 <= x287 <= 1
 0 <= x288 <= 1
 0 <= x289 <= 1
 0 <= x290 <= 1
 0 <= x291 <= 1
 0 <= x292 <= 1
 0 <= x293 <= 1
 0 <= x294 <= 1
 0 <= x295 <= 1
 0 <= x296 <= 1
 0 <= x297 <= 1
 0 <= x298 <= 1
 0 <= x299 <= 1
 0 <= x300 <= 1
Binaries
 x251  x252  x253  x254  x255  x256  x257  x258  x259  x260  x261  x262  x263 
 x264  x265  x266  x267  x268  x269  x270  x271  x272  x273  x274  x275  x276 
 x277  x278  x279  x280  x281  x282  x283  x284  x285  x286  x287  x288  x289 
 x290  x291  x292  x293  x294  x295  x296  x297  x298  x299  x300 
End
